outputs/case_95.model.txt
agent_or_notary = False
guarantee_deposit_amount = 50000
broker_company_shareholding_in_insurance_company = 0
discloses_fee_standard = False
minimum_guarantee_deposit = 50000
has_broker_certificate = True
receives_fee = True
has_agent_certificate = False
has_liability_insurance = True
broker_in_specified_scope = False
insurance_company_shareholding_in_broker_company = 0
has_notary_certificate = False
provides_written_analysis_report = True
is_agent_company = False
broker = True
is_publicly_listed_or_large_scale = False
has_guarantee_insurance = True
is_broker_company = True
discloses_shareholding_info = True
has_internal_control_and_audit_and_handling_procedures = True
licensed = True
act_19_fail_to_appoint_replacement_broker = False
act_3_conceal_important_contract_info = False
disclosure_of_shareholding = True
act_16_employ_unqualified_personnel = False
written_analysis_report_and_fee_disclosure = True
act_27_induce_contract_termination_or_loan = False
act_24_sell_unapproved_foreign_policy_discount_benefits = False
insurance_policy_valid = True
act_7_misappropriation_of_funds = False
act_30_other_acts_damaging_insurance_image = False
act_18_unauthorized_suspension_or_termination = False
internal_operation_regulations_implemented = True
has_dedicated_accounting_books = True
documents_retained = True
act_5_false_or_misleading_promotion = False
act_25_false_or_incomplete_financial_reports = False
act_13_spread_false_information = False
act_8_unauthorized_use_of_license = False
prohibited_acts = True
act_14_authorize_others_to_operate = False
understands_customer_needs = True
act_20_fail_to_report_to_broker_association = False
act_10_operate_outside_license_scope = False
act_23_fail_to_confirm_suitability_for_elderly = False
broker_fulfills_loyalty = True
internal_operation_compliance = True
act_15_illegal_transfer_of_application_documents = False
broker_exercises_diligence = True
act_11_illegal_fee_collection = False
internal_control_requirement = True
act_22_pay_commission_to_non_actual_recruiter = False
license_and_guarantee_compliance = True
has_practice_certificate = True
act_29_other_violations_of_rules_or_laws = False
act_4_coerce_or_induce_unfair_contract = False
act_28_fail_to_fill_recruitment_report_truthfully = False
fixed_office_and_accounting = True
act_12_illegal_insurance_payment = False
good_faith_and_duty_of_loyalty = True
understanding_customer_needs_and_documentation = True
single_practice_certificate = True
act_6_improper_inducement_to_cancel_or_loan = False
act_9_conviction_of_fraud_or_forgery = False
act_17_fail_to_cancel_license_in_time = False
act_2_contract_with_unapproved_insurer = False
has_internal_operation_regulations = True
penalty = False
has_fixed_office = True
act_26_conflict_of_interest_or_insurance_officer = False
act_1_false_report_on_license_application = False
act_21_use_unapproved_advertisement = False
insurance_policy_type_compliance = True